(set-info :smt-lib-version 2.6)
(set-logic QF_SLIA)
(set-info :source |
Generated by: Dmitry Blotsky1, Federico Mora, Murphy Berzish, Yunhui Zheng, Ifaz Kabir, Vijay Ganesh, Zhengyang Lu
Generated on: 2018-01-24
Generator: StringFuzz
Application: Evaluate string solvers
Target solver: Z3str3, CVC4, Z3str2, Norn
Publications: Blotsky, D., Mora, F., Berzish, M., Zheng, Y., Kabir, I., & Ganesh, V. (2018). Stringfuzz: A fuzzer for string solvers. In CAV 2018.
Description: transformed by StringFuzz, a modular string and regex fuzzer, from an industrial benchmark
|)
(set-info :license "https://creativecommons.org/licenses/by/4.0/")
(set-info :category "random")
(set-info :status unknown)

(declare-const x String)
(declare-const y String)
(assert (= x ",}0Q,'\n'?BF'\x0b'@,'\t'H""<idg{0Vd'\t'>AMvH?tb+SH_QiT(;p\\lWW'\x0b''\r'D:V?dedfp6+V'\t'kB{.{K'\t'ngg!dg|dZOdg|dv,Z/ES' 'iwH4DWWFded'\x0b'^,njf:>Z!adnp' '_'\n'kr+!O9v4B$dL)@YAzv<TMjZ?J'X;'\t'""!y'\r'rt'B,owD)Zdg{0Vds'\t'.JggH43"))
(assert (str.in_re x (re.* (str.to_re ";^FE"))))
(check-sat)

(exit)
